benchmark/results/graph__10-1000-0.10-04_8/graph__10-1000-0.10-04_8_Quinton_Benders_primal_sub.lp
\ This file has been generated by DOcplex
\ ENCODING=ISO-8859-1
\Problem name: Quinton Benders_primal_sub

Maximize
 obj: tau
Subject To
 c1: tau <= 0.001025641026
 c2: y_a0_proc_1 + y_a0_proc_3 - tau = 0
 c3: y_a0_proc_1 <= 0
 c4: y_a0_proc_3 <= 1
 c5: tau <= 0.001052631579
 c6: y_a1_proc_1 + y_a1_proc_3 - tau = 0
 c7: y_a1_proc_1 <= 0
 c8: y_a1_proc_3 <= 1
 c9: tau <= 0.000880281690
 c10: y_a2_proc_1 + y_a2_proc_2 + y_a2_proc_3 - tau = 0
 c11: y_a2_proc_1 <= 0
 c12: y_a2_proc_2 <= 1
 c13: y_a2_proc_3 <= 0
 c14: tau <= 0.001773049645
 c15: y_a3_proc_0 + y_a3_proc_2 + y_a3_proc_3 - tau = 0
 c16: y_a3_proc_0 <= 1
 c17: y_a3_proc_2 <= 0
 c18: y_a3_proc_3 <= 0
 c19: tau <= 0.002145922747
 c20: y_a4_proc_0 + y_a4_proc_1 + y_a4_proc_2 + y_a4_proc_3 - tau = 0
 c21: y_a4_proc_0 <= 0
 c22: y_a4_proc_1 <= 1
 c23: y_a4_proc_2 <= 0
 c24: y_a4_proc_3 <= 0
 c25: tau <= 0.001751313485
 c26: y_a5_proc_1 + y_a5_proc_2 + y_a5_proc_3 - tau = 0
 c27: y_a5_proc_1 <= 0
 c28: y_a5_proc_2 <= 1
 c29: y_a5_proc_3 <= 0
 c30: tau <= 0.001317523057
 c31: y_a6_proc_0 + y_a6_proc_1 + y_a6_proc_2 - tau = 0
 c32: y_a6_proc_0 <= 0
 c33: y_a6_proc_1 <= 0
 c34: y_a6_proc_2 <= 1
 c35: tau <= 0.000987166831
 c36: y_a7_proc_0 + y_a7_proc_2 + y_a7_proc_3 - tau = 0
 c37: y_a7_proc_0 <= 0
 c38: y_a7_proc_2 <= 0
 c39: y_a7_proc_3 <= 1
 c40: tau <= 0.001250000000
 c41: y_a8_proc_0 + y_a8_proc_1 + y_a8_proc_2 + y_a8_proc_3 - tau = 0
 c42: y_a8_proc_0 <= 1
 c43: y_a8_proc_1 <= 0
 c44: y_a8_proc_2 <= 0
 c45: y_a8_proc_3 <= 0
 c46: tau <= 0.002433090024
 c47: y_a9_proc_0 + y_a9_proc_2 + y_a9_proc_3 - tau = 0
 c48: y_a9_proc_0 <= 0
 c49: y_a9_proc_2 <= 1
 c50: y_a9_proc_3 <= 0
 c51: u_a0 - u_a1 - 1067 y_a1_proc_1 - 950 y_a1_proc_3 >= -1
 c52: u_a2 - u_a1 - 1067 y_a1_proc_1 - 950 y_a1_proc_3 >= -1
 c53: u_a2 - u_a3 - 564 y_a3_proc_0 - 939 y_a3_proc_2 - 633 y_a3_proc_3 >= 0
 c54: u_a4 - u_a0 - 714 y_a0_proc_1 - 975 y_a0_proc_3 >= 0
 c55: u_a5 - u_a1 - 1067 y_a1_proc_1 - 950 y_a1_proc_3 >= 0
 c56: u_a6 - u_a2 - 1263 y_a2_proc_1 - 1136 y_a2_proc_2 - 1277 y_a2_proc_3 >= 0
 c57: u_a7 - u_a4 - 886 y_a4_proc_0 - 466 y_a4_proc_1 - 550 y_a4_proc_2
      - 1048 y_a4_proc_3 >= 0
 c58: u_a7 - u_a8 - 800 y_a8_proc_0 - 1101 y_a8_proc_1 - 946 y_a8_proc_2
      - 854 y_a8_proc_3 >= 0
 c59: u_a9 - u_a7 - 1098 y_a7_proc_0 - 1198 y_a7_proc_2 - 1013 y_a7_proc_3 >= 0
 c60: u_a3 - u_a5 - 1122 y_a5_proc_1 - 571 y_a5_proc_2 - 880 y_a5_proc_3 >= -1
 c61: u_a4 - u_a2 - 1263 y_a2_proc_1 - 1136 y_a2_proc_2 - 1277 y_a2_proc_3 >= 0
 c62: u_a1 - u_a0 - 714 y_a0_proc_1 - 975 y_a0_proc_3 >= 0
 c63: u_a8 - u_a4 - 886 y_a4_proc_0 - 466 y_a4_proc_1 - 550 y_a4_proc_2
      - 1048 y_a4_proc_3 >= 0
 c64: u_a5 - u_a6 - 585 y_a6_proc_0 - 741 y_a6_proc_1 - 759 y_a6_proc_2 >= 0
 c65: u_a1 - u_a9 - 1081 y_a9_proc_0 - 411 y_a9_proc_2 - 844 y_a9_proc_3 >= 0
 c66: u_a6 - u_a3 - 564 y_a3_proc_0 - 939 y_a3_proc_2 - 633 y_a3_proc_3 >= 0
 c67: u_a1 - u_a0 - 975 y_a0_proc_3 >= 0
 c68: u_a1 - u_a0 - 714 y_a0_proc_1 >= -2554
 c69: u_a0 - u_a1 - 950 y_a1_proc_3 >= -1
 c70: u_a0 - u_a1 - 1067 y_a1_proc_1 >= -2555
 c71: u_a2 - u_a0 - 975 y_a0_proc_3 >= -2554
 c72: u_a2 - u_a0 - 714 y_a0_proc_1 >= -3831
 c73: u_a0 - u_a2 - 1277 y_a2_proc_3 >= -1
 c74: u_a0 - u_a2 - 1263 y_a2_proc_1 >= -1278
 c75: u_a3 - u_a0 - 975 y_a0_proc_3 >= -2555
 c76: u_a0 - u_a3 - 633 y_a3_proc_3 >= 0
 c77: u_a4 - u_a0 - 975 y_a0_proc_3 >= -2554
 c78: u_a4 - u_a0 - 714 y_a0_proc_1 >= -2554
 c79: u_a0 - u_a4 - 1048 y_a4_proc_3 >= -1
 c80: u_a0 - u_a4 - 466 y_a4_proc_1 >= -1
 c81: u_a5 - u_a0 - 975 y_a0_proc_3 >= -2554
 c82: u_a5 - u_a0 - 714 y_a0_proc_1 >= -3831
 c83: u_a0 - u_a5 - 880 y_a5_proc_3 >= -1
 c84: u_a0 - u_a5 - 1122 y_a5_proc_1 >= -1278
 c85: u_a6 - u_a0 - 714 y_a0_proc_1 >= -5108
 c86: u_a0 - u_a6 - 741 y_a6_proc_1 >= -1
 c87: u_a7 - u_a0 - 975 y_a0_proc_3 >= 0
 c88: u_a0 - u_a7 - 1013 y_a7_proc_3 >= -1
 c89: u_a8 - u_a0 - 975 y_a0_proc_3 >= -2554
 c90: u_a8 - u_a0 - 714 y_a0_proc_1 >= -3831
 c91: u_a0 - u_a8 - 854 y_a8_proc_3 >= -1
 c92: u_a0 - u_a8 - 1101 y_a8_proc_1 >= -1278
 c93: u_a9 - u_a0 - 975 y_a0_proc_3 >= -2554
 c94: u_a0 - u_a9 - 844 y_a9_proc_3 >= -1
 c95: u_a2 - u_a1 - 950 y_a1_proc_3 >= -2555
 c96: u_a2 - u_a1 - 1067 y_a1_proc_1 >= -3832
 c97: u_a1 - u_a2 - 1277 y_a2_proc_3 >= 0
 c98: u_a1 - u_a2 - 1263 y_a2_proc_1 >= -1277
 c99: u_a3 - u_a1 - 950 y_a1_proc_3 >= -2555
 c100: u_a1 - u_a3 - 633 y_a3_proc_3 >= 0
 c101: u_a4 - u_a1 - 950 y_a1_proc_3 >= -2555
 c102: u_a4 - u_a1 - 1067 y_a1_proc_1 >= -2555
 c103: u_a1 - u_a4 - 1048 y_a4_proc_3 >= 0
 c104: u_a1 - u_a4 - 466 y_a4_proc_1 >= 0
 c105: u_a5 - u_a1 - 950 y_a1_proc_3 >= -2554
 c106: u_a5 - u_a1 - 1067 y_a1_proc_1 >= -3831
 c107: u_a1 - u_a5 - 880 y_a5_proc_3 >= -1
 c108: u_a1 - u_a5 - 1122 y_a5_proc_1 >= -1278
 c109: u_a6 - u_a1 - 1067 y_a1_proc_1 >= -5108
 c110: u_a1 - u_a6 - 741 y_a6_proc_1 >= -1
 c111: u_a7 - u_a1 - 950 y_a1_proc_3 >= -1
 c112: u_a1 - u_a7 - 1013 y_a7_proc_3 >= 0
 c113: u_a8 - u_a1 - 950 y_a1_proc_3 >= -2555
 c114: u_a8 - u_a1 - 1067 y_a1_proc_1 >= -3832
 c115: u_a1 - u_a8 - 854 y_a8_proc_3 >= 0
 c116: u_a1 - u_a8 - 1101 y_a8_proc_1 >= -1277
 c117: u_a9 - u_a1 - 950 y_a1_proc_3 >= -2554
 c118: u_a1 - u_a9 - 844 y_a9_proc_3 >= -1
 c119: u_a3 - u_a2 - 1136 y_a2_proc_2 >= -2554
 c120: u_a3 - u_a2 - 1277 y_a2_proc_3 >= -3831
 c121: u_a2 - u_a3 - 939 y_a3_proc_2 >= -1
 c122: u_a2 - u_a3 - 633 y_a3_proc_3 >= -1278
 c123: u_a4 - u_a2 - 1136 y_a2_proc_2 >= -1277
 c124: u_a4 - u_a2 - 1277 y_a2_proc_3 >= -2554
 c125: u_a4 - u_a2 - 1263 y_a2_proc_1 >= -1277
 c126: u_a2 - u_a4 - 550 y_a4_proc_2 >= -1278
 c127: u_a2 - u_a4 - 1048 y_a4_proc_3 >= -2555
 c128: u_a2 - u_a4 - 466 y_a4_proc_1 >= -1278
 c129: u_a5 - u_a2 - 1136 y_a2_proc_2 >= 0
 c130: u_a5 - u_a2 - 1277 y_a2_proc_3 >= -2554
 c131: u_a5 - u_a2 - 1263 y_a2_proc_1 >= -2554
 c132: u_a2 - u_a5 - 571 y_a5_proc_2 >= -1
 c133: u_a2 - u_a5 - 880 y_a5_proc_3 >= -2555
 c134: u_a2 - u_a5 - 1122 y_a5_proc_1 >= -2555
 c135: u_a6 - u_a2 - 1136 y_a2_proc_2 >= 0
 c136: u_a6 - u_a2 - 1263 y_a2_proc_1 >= -2554
 c137: u_a2 - u_a6 - 759 y_a6_proc_2 >= -1
 c138: u_a2 - u_a6 - 741 y_a6_proc_1 >= -2555
 c139: u_a7 - u_a2 - 1136 y_a2_proc_2 >= -2554
 c140: u_a7 - u_a2 - 1277 y_a2_proc_3 >= -2554
 c141: u_a2 - u_a7 - 1198 y_a7_proc_2 >= -1
 c142: u_a2 - u_a7 - 1013 y_a7_proc_3 >= -1
 c143: u_a8 - u_a2 - 1136 y_a2_proc_2 >= -2554
 c144: u_a8 - u_a2 - 1277 y_a2_proc_3 >= -3831
 c145: u_a8 - u_a2 - 1263 y_a2_proc_1 >= -3831
 c146: u_a2 - u_a8 - 946 y_a8_proc_2 >= -1
 c147: u_a2 - u_a8 - 854 y_a8_proc_3 >= -1278
 c148: u_a2 - u_a8 - 1101 y_a8_proc_1 >= -1278
 c149: u_a9 - u_a2 - 1136 y_a2_proc_2 >= 0
 c150: u_a9 - u_a2 - 1277 y_a2_proc_3 >= -2554
 c151: u_a2 - u_a9 - 411 y_a9_proc_2 >= -1
 c152: u_a2 - u_a9 - 844 y_a9_proc_3 >= -2555
 c153: u_a4 - u_a3 - 939 y_a3_proc_2 >= -3831
 c154: u_a4 - u_a3 - 633 y_a3_proc_3 >= -3831
 c155: u_a4 - u_a3 - 564 y_a3_proc_0 >= -2554
 c156: u_a3 - u_a4 - 550 y_a4_proc_2 >= -1278
 c157: u_a3 - u_a4 - 1048 y_a4_proc_3 >= -1278
 c158: u_a3 - u_a4 - 886 y_a4_proc_0 >= -1
 c159: u_a5 - u_a3 - 939 y_a3_proc_2 >= -2554
 c160: u_a5 - u_a3 - 633 y_a3_proc_3 >= -3831
 c161: u_a3 - u_a5 - 571 y_a5_proc_2 >= -1
 c162: u_a3 - u_a5 - 880 y_a5_proc_3 >= -1278
 c163: u_a6 - u_a3 - 939 y_a3_proc_2 >= -2554
 c164: u_a6 - u_a3 - 564 y_a3_proc_0 >= -2554
 c165: u_a3 - u_a6 - 759 y_a6_proc_2 >= -1
 c166: u_a3 - u_a6 - 585 y_a6_proc_0 >= -1
 c167: u_a7 - u_a3 - 939 y_a3_proc_2 >= -3831
 c168: u_a7 - u_a3 - 633 y_a3_proc_3 >= -2554
 c169: u_a7 - u_a3 - 564 y_a3_proc_0 >= -2554
 c170: u_a3 - u_a7 - 1198 y_a7_proc_2 >= -1278
 c171: u_a3 - u_a7 - 1013 y_a7_proc_3 >= -1
 c172: u_a3 - u_a7 - 1098 y_a7_proc_0 >= -1
 c173: u_a8 - u_a3 - 939 y_a3_proc_2 >= -2554
 c174: u_a8 - u_a3 - 633 y_a3_proc_3 >= -2554
 c175: u_a8 - u_a3 - 564 y_a3_proc_0 >= 0
 c176: u_a3 - u_a8 - 946 y_a8_proc_2 >= -2555
 c177: u_a3 - u_a8 - 854 y_a8_proc_3 >= -2555
 c178: u_a3 - u_a8 - 800 y_a8_proc_0 >= -1
 c179: u_a9 - u_a3 - 939 y_a3_proc_2 >= -2554
 c180: u_a9 - u_a3 - 633 y_a3_proc_3 >= -3831
 c181: u_a9 - u_a3 - 564 y_a3_proc_0 >= -2554
 c182: u_a3 - u_a9 - 411 y_a9_proc_2 >= -1
 c183: u_a3 - u_a9 - 844 y_a9_proc_3 >= -1278
 c184: u_a3 - u_a9 - 1081 y_a9_proc_0 >= -1
 c185: u_a5 - u_a4 - 550 y_a4_proc_2 >= -1277
 c186: u_a5 - u_a4 - 1048 y_a4_proc_3 >= -2554
 c187: u_a5 - u_a4 - 466 y_a4_proc_1 >= -1277
 c188: u_a4 - u_a5 - 571 y_a5_proc_2 >= -1278
 c189: u_a4 - u_a5 - 880 y_a5_proc_3 >= -2555
 c190: u_a4 - u_a5 - 1122 y_a5_proc_1 >= -1278
 c191: u_a6 - u_a4 - 550 y_a4_proc_2 >= -1277
 c192: u_a6 - u_a4 - 886 y_a4_proc_0 >= -2554
 c193: u_a6 - u_a4 - 466 y_a4_proc_1 >= -1277
 c194: u_a4 - u_a6 - 759 y_a6_proc_2 >= -1278
 c195: u_a4 - u_a6 - 585 y_a6_proc_0 >= -2555
 c196: u_a4 - u_a6 - 741 y_a6_proc_1 >= -1278
 c197: u_a7 - u_a4 - 550 y_a4_proc_2 >= -3831
 c198: u_a7 - u_a4 - 1048 y_a4_proc_3 >= -2554
 c199: u_a7 - u_a4 - 886 y_a4_proc_0 >= -3831
 c200: u_a4 - u_a7 - 1198 y_a7_proc_2 >= -1278
 c201: u_a4 - u_a7 - 1013 y_a7_proc_3 >= -1
 c202: u_a4 - u_a7 - 1098 y_a7_proc_0 >= -1278
 c203: u_a8 - u_a4 - 550 y_a4_proc_2 >= -3831
 c204: u_a8 - u_a4 - 1048 y_a4_proc_3 >= -3831
 c205: u_a8 - u_a4 - 886 y_a4_proc_0 >= -2554
 c206: u_a8 - u_a4 - 466 y_a4_proc_1 >= -2554
 c207: u_a4 - u_a8 - 946 y_a8_proc_2 >= -1278
 c208: u_a4 - u_a8 - 854 y_a8_proc_3 >= -1278
 c209: u_a4 - u_a8 - 800 y_a8_proc_0 >= -1
 c210: u_a4 - u_a8 - 1101 y_a8_proc_1 >= -1
 c211: u_a9 - u_a4 - 550 y_a4_proc_2 >= -1277
 c212: u_a9 - u_a4 - 1048 y_a4_proc_3 >= -2554
 c213: u_a9 - u_a4 - 886 y_a4_proc_0 >= -2554
 c214: u_a4 - u_a9 - 411 y_a9_proc_2 >= -1278
 c215: u_a4 - u_a9 - 844 y_a9_proc_3 >= -2555
 c216: u_a4 - u_a9 - 1081 y_a9_proc_0 >= -2555
 c217: u_a6 - u_a5 - 571 y_a5_proc_2 >= -1
 c218: u_a6 - u_a5 - 1122 y_a5_proc_1 >= -2555
 c219: u_a5 - u_a6 - 759 y_a6_proc_2 >= 0
 c220: u_a5 - u_a6 - 741 y_a6_proc_1 >= -2554
 c221: u_a7 - u_a5 - 571 y_a5_proc_2 >= -2555
 c222: u_a7 - u_a5 - 880 y_a5_proc_3 >= -2555
 c223: u_a5 - u_a7 - 1198 y_a7_proc_2 >= 0
 c224: u_a5 - u_a7 - 1013 y_a7_proc_3 >= 0
 c225: u_a8 - u_a5 - 571 y_a5_proc_2 >= -2555
 c226: u_a8 - u_a5 - 880 y_a5_proc_3 >= -3832
 c227: u_a8 - u_a5 - 1122 y_a5_proc_1 >= -3832
 c228: u_a5 - u_a8 - 946 y_a8_proc_2 >= 0
 c229: u_a5 - u_a8 - 854 y_a8_proc_3 >= -1277
 c230: u_a5 - u_a8 - 1101 y_a8_proc_1 >= -1277
 c231: u_a9 - u_a5 - 571 y_a5_proc_2 >= -1
 c232: u_a9 - u_a5 - 880 y_a5_proc_3 >= -2555
 c233: u_a5 - u_a9 - 411 y_a9_proc_2 >= 0
 c234: u_a5 - u_a9 - 844 y_a9_proc_3 >= -2554
 c235: u_a7 - u_a6 - 759 y_a6_proc_2 >= -2555
 c236: u_a7 - u_a6 - 585 y_a6_proc_0 >= -3832
 c237: u_a6 - u_a7 - 1198 y_a7_proc_2 >= 0
 c238: u_a6 - u_a7 - 1098 y_a7_proc_0 >= -1277
 c239: u_a8 - u_a6 - 759 y_a6_proc_2 >= -2555
 c240: u_a8 - u_a6 - 585 y_a6_proc_0 >= -2555
 c241: u_a8 - u_a6 - 741 y_a6_proc_1 >= -3832
 c242: u_a6 - u_a8 - 946 y_a8_proc_2 >= 0
 c243: u_a6 - u_a8 - 800 y_a8_proc_0 >= 0
 c244: u_a6 - u_a8 - 1101 y_a8_proc_1 >= -1277
 c245: u_a9 - u_a6 - 759 y_a6_proc_2 >= -1
 c246: u_a9 - u_a6 - 585 y_a6_proc_0 >= -2555
 c247: u_a6 - u_a9 - 411 y_a9_proc_2 >= 0
 c248: u_a6 - u_a9 - 1081 y_a9_proc_0 >= -2554
 c249: u_a8 - u_a7 - 1198 y_a7_proc_2 >= -3831
 c250: u_a8 - u_a7 - 1013 y_a7_proc_3 >= -2554
 c251: u_a8 - u_a7 - 1098 y_a7_proc_0 >= -2554
 c252: u_a7 - u_a8 - 946 y_a8_proc_2 >= -1278
 c253: u_a7 - u_a8 - 854 y_a8_proc_3 >= -1
 c254: u_a7 - u_a8 - 800 y_a8_proc_0 >= -1
 c255: u_a9 - u_a7 - 1198 y_a7_proc_2 >= -2554
 c256: u_a9 - u_a7 - 1013 y_a7_proc_3 >= -2554
 c257: u_a9 - u_a7 - 1098 y_a7_proc_0 >= -3831
 c258: u_a7 - u_a9 - 411 y_a9_proc_2 >= -1
 c259: u_a7 - u_a9 - 844 y_a9_proc_3 >= -1
 c260: u_a7 - u_a9 - 1081 y_a9_proc_0 >= -1278
 c261: u_a9 - u_a8 - 946 y_a8_proc_2 >= -2554
 c262: u_a9 - u_a8 - 854 y_a8_proc_3 >= -3831
 c263: u_a9 - u_a8 - 800 y_a8_proc_0 >= -2554
 c264: u_a8 - u_a9 - 411 y_a9_proc_2 >= -1
 c265: u_a8 - u_a9 - 844 y_a9_proc_3 >= -1278
 c266: u_a8 - u_a9 - 1081 y_a9_proc_0 >= -1

Bounds
End
