benchmark/results/graph__10-1000-0.10-04_8/graph__10-1000-0.10-04_8_Quinton_Benders_primal_sub.txt
solution for: Quinton Benders_primal_sub
objective: 0.000169176
status: OPTIMAL_SOLUTION(2)
u_a1=0.743
u_a2=0.095
u_a4=0.288
u_a5=0.903
u_a6=0.743
u_a7=0.502
u_a8=0.366
u_a9=0.673
tau=0.000
y_a0_proc_3=0.000
y_a1_proc_3=0.000
y_a2_proc_2=0.000
y_a3_proc_0=0.000
y_a4_proc_1=0.000
y_a5_proc_2=0.000
y_a6_proc_2=0.000
y_a7_proc_3=0.000
y_a8_proc_0=0.000
y_a9_proc_2=0.000
